20040219,-11.54
20040220,-11.54
20040510,16.00
20041111,2.78
20060308,-3.23
20070223,-4.35
20070511,-8.33
20070720,-10.45
20071107,-9.84
20080219,-13.58
20080425,-30.38
20080724,14.93
20081029,0.00
20090218,35.82
20090512,-10.87
20090729,-5.45
20091112,-3.03
20100211,-4.62
20100512,-35.29
20100728,46.30
20101110,-2.67
